50
2482 1183
3854 923
376 825
2519 135
2945 1622
953 268
2628 1479
2097 981
890 1846
2139 1806
2421 1007
2290 1810
1115 1052
2588 302
327 265
241 341
1917 687
2991 792
2573 599
19 674
3911 1673
872 1559
2863 558
929 1766
839 620
3893 102
2178 1619
3822 899
378 1048
1178 100
2599 901
3416 143
2961 1605
611 1384
3113 885
2597 1830
2586 1286
161 906
1429 134
742 1025
1625 1651
1187 706
1787 1009
22 987
3640 43
3756 882
776 392
1724 1642
198 1810
3950 1558